25          48          999999          0          1.1
     30.0          40.0		0     
      52.0          41.0    15    
     27.0          23.0     3     
      17.0          33.0    41    
     13.0          13.0     9     
      57.0          58.0    28    
     62.0          42.0     8     
     42.0          57.0     8     
      16.0          57.0    16    
      8.0          52.0     10    
      7.0          38.0     28    
     27.0          68.0     7     
      30.0          48.0    15    
      43.0          67.0    14    
     58.0          48.0     6     
      58.0          27.0    19    
      37.0          69.0    11    
      38.0          46.0    12    
      46.0          10.0    23    
      61.0          33.0    26    
      62.0          63.0    17    
     63.0          69.0     6     
     32.0          22.0     9     
      45.0          35.0    15    
      59.0          15.0    14    
     5.0          6.0       7     
